; benchmark generated from python API
(set-info :status unknown)
(declare-fun |__fml:a:1| () Bool)
(declare-fun |__fml:a:2| () Bool)
(declare-fun |__new_fml:a_a:1| () Bool)
(declare-fun |__new_fml:a_a:2| () Bool)
(declare-fun |__fml:a:0| () Bool)
(declare-fun |__new_fml:a_a:0| () Bool)
(declare-fun |__fml:r:2| () Bool)
(declare-fun |__new_fml:r_a:2| () Bool)
(declare-fun |__fml:r:0| () Bool)
(declare-fun |__new_fml:r_a:0| () Bool)
(declare-fun |__fml:r:1| () Bool)
(declare-fun |__new_fml:r_a:1| () Bool)
(declare-fun |__fml:s:2| () Bool)
(declare-fun |__new_fml:s_a:2| () Bool)
(declare-fun |__fml:s:0| () Bool)
(declare-fun |__new_fml:s_a:0| () Bool)
(declare-fun |__fml:s:1| () Bool)
(declare-fun |__new_fml:s_a:1| () Bool)
(declare-fun r_S_11.has_flit () Bool)
(declare-fun r_N_10.has_flit () Bool)
(declare-fun r_E_00.has_flit () Bool)
(declare-fun r_W_10.has_flit () Bool)
(declare-fun r_PE_10.has_flit () Bool)
(declare-fun r_PE_10.ready () Bool)
(assert
 (let (($x55 (and (and |__new_fml:a_a:2| (and |__new_fml:a_a:1| true)) (and |__fml:a:2| (and |__fml:a:1| true)))))
 (let (($x50 (and (= |__new_fml:a_a:2| |__fml:a:2|) (= |__new_fml:a_a:1| |__fml:a:1|) (= |__new_fml:a_a:0| |__fml:a:0|))))
 (let (($x35 (and (= |__new_fml:r_a:2| |__fml:r:2|) (= |__new_fml:r_a:1| |__fml:r:1|) (= |__new_fml:r_a:0| |__fml:r:0|))))
 (let (($x19 (and (= |__new_fml:s_a:2| |__fml:s:2|) (= |__new_fml:s_a:1| |__fml:s:1|) (= |__new_fml:s_a:0| |__fml:s:0|))))
 (let (($x7 (or r_PE_10.has_flit r_W_10.has_flit r_E_00.has_flit r_N_10.has_flit r_S_11.has_flit)))
 (and r_PE_10.has_flit r_PE_10.ready (not $x7) (or $x19 (and (and |__new_fml:s_a:2| true) (and |__fml:s:2| true))) (or $x35 (and (and |__new_fml:r_a:2| true) (and |__fml:r:2| true))) (or $x50 $x55))))))))
(assert
 (and (not or)))
(check-sat)
